100 100 100
50
47 49 35
94 53 35
62 19 15
25 53 8
4 33 35
3 24 34
29 6 95
98 38 86
99 66 35
33 88 66
8 87 32
77 31 17
4 38 21
25 4 49
47 46 7
67 54 3
20 48 27
22 69 11
59 83 97
33 46 12
25 56 3
43 91 75
80 30 63
15 40 72
27 32 36
66 15 58
70 23 34
99 61 97
45 97 45
14 78 54
38 10 77
52 45 8
18 40 15
5 2 82
35 54 40
34 31 88
32 15 83
49 92 38
6 19 83
15 97 50
96 11 22
41 47 41
10 69 67
14 39 20
40 28 2
45 27 16
93 69 97
8 97 58
45 4 58
53 43 98
